(declare-const a Real)
(declare-const b Real)
(declare-const c Real)
(assert (= (+ a b c) 3))
(assert (not (<= (+ (* (pow (+ (pow b 4) (pow c 4)) (pow (+ 1 (pow a 4)) -1)) (+ -1 (* -1 (pow a 4)))) (* a b (pow c 2)) (* a c (pow b 2)) (* b c (pow a 2))) 0)))
(check-sat)
(get-model)
(exit)